951.04,59.54,71.36
1096.71,51.63,61.88
1174.76,48.2,57.77
1122.31,50.46,60.47
1061.13,53.36,63.96
1050.91,53.88,64.58
1036.37,54.64,65.48
991.3,57.12,68.46
985.38,57.47,68.87
1040.26,54.43,65.24
998.75,56.7,67.95
978.79,57.85,69.34
1073.41,52.75,63.22
1076.42,52.61,63.05
1097.43,51.6,61.84
975.94,58.02,69.54
1037.37,54.59,65.42
1072.25,52.81,63.29
1109.46,51.04,61.17
1101.95,51.39,61.59
